p cnf 143 194               
13 -73 0
-6 57 0
-5 55 0
-4 53 0
-3 51 0
-1 49 0
-2 49 0
-49 51 0
-51 53 0
-53 55 0
-55 57 0
-13 1 -65 0
65 -71 0
-14 2 -66 0
66 -71 0
-15 3 -67 0
67 -71 0
-16 4 -68 0
68 -71 0
-17 5 -69 0
69 -71 0
-18 6 -70 0
70 -71 0
-57 71 -72 0
72 -73 0
73 79 0
-1 79 0
14 -74 0
72 -74 0
74 80 0
-2 80 0
15 -75 0
72 -75 0
75 81 0
-3 81 0
16 -76 0
72 -76 0
76 82 0
-4 82 0
17 -77 0
72 -77 0
77 83 0
-5 83 0
18 -78 0
72 -78 0
78 84 0
-6 84 0
-79 -80 -81 -82 -83 -84 85 0
-85 -86 0
-8 -7 -19 0
19 -29 0
-7 20 0
-8 20 0
7 8 -20 0
-20 -9 -21 0
21 -29 0
-9 22 0
-20 22 0
9 20 -22 0
-22 -10 -23 0
23 -29 0
-10 24 0
-22 24 0
10 22 -24 0
-24 -11 -25 0
25 -29 0
-11 26 0
-24 26 0
11 24 -26 0
-26 -12 -27 0
27 -29 0
12 26 -28 0
28 -29 0
29 -86 0
-14 -13 -30 0
30 -40 0
-13 31 0
-14 31 0
13 14 -31 0
-31 -15 -32 0
32 -40 0
-15 33 0
-31 33 0
15 31 -33 0
-33 -16 -34 0
34 -40 0
-16 35 0
-33 35 0
16 33 -35 0
-35 -17 -36 0
36 -40 0
-17 37 0
-35 37 0
17 35 -37 0
-37 -18 -38 0
38 -40 0
18 37 -39 0
39 -40 0
40 -86 0
-7 1 -41 0
41 -47 0
-8 2 -42 0
42 -47 0
-9 3 -43 0
43 -47 0
-10 4 -44 0
44 -47 0
-11 5 -45 0
45 -47 0
-12 6 -46 0
46 -47 0
47 -86 0
-1 2 -87 0
87 -97 0
-1 -2 88 0
1 2 88 0
-2 2 88 0
-7 8 -89 0
-88 89 -90 0
90 -97 0
-7 -8 91 0
7 8 91 0
-8 8 91 0
-88 -91 92 0
-13 14 -93 0
-92 93 -94 0
94 -97 0
97 -142 0
-2 3 -98 0
98 -108 0
-2 -3 99 0
2 3 99 0
-3 3 99 0
-8 9 -100 0
-99 100 -101 0
101 -108 0
-8 -9 102 0
8 9 102 0
-9 9 102 0
-99 -102 103 0
-14 15 -104 0
-103 104 -105 0
105 -108 0
108 -142 0
-3 4 -109 0
109 -119 0
-3 -4 110 0
3 4 110 0
-4 4 110 0
-9 10 -111 0
-110 111 -112 0
112 -119 0
-9 -10 113 0
9 10 113 0
-10 10 113 0
-110 -113 114 0
-15 16 -115 0
-114 115 -116 0
116 -119 0
119 -142 0
-4 5 -120 0
120 -130 0
-4 -5 121 0
4 5 121 0
-5 5 121 0
-10 11 -122 0
-121 122 -123 0
123 -130 0
-10 -11 124 0
10 11 124 0
-11 11 124 0
-121 -124 125 0
-16 17 -126 0
-125 126 -127 0
127 -130 0
130 -142 0
-5 6 -131 0
131 -141 0
-5 -6 132 0
5 6 132 0
-6 6 132 0
-11 12 -133 0
-132 133 -134 0
134 -141 0
-11 -12 135 0
11 12 135 0
-12 12 135 0
-132 -135 136 0
-17 18 -137 0
-136 137 -138 0
138 -141 0
141 -142 0
86 0
142 0
